40	100	100	100
82	70	4
76	94	46
89	66	45
93	82	37
89	83	3
90	95	39
76	97	23
73	68	30
96	82	43
85	88	37
74	85	34
66	77	32
90	88	13
68	94	22
81	75	24
75	76	15
81	72	16
75	72	15
93	77	23
70	91	12
72	81	46
83	85	14
74	83	23
77	79	3
94	85	48
99	87	5
89	81	35
85	78	37
90	67	38
98	77	1
82	99	13
74	97	30
93	66	25
77	68	39
91	89	32
92	91	47
93	81	20
96	99	10
89	68	12
96	91	41
